CMPL model generation - running

CMPL version: 1.11.0
Authors: Thomas Schleiff, Mike Steglich
Distributed under the GPLv3 

create model instance ...
write model instance ...
CMPL model generation - finished

Solver - running


Welcome to IBM(R) ILOG(R) CPLEX(R) Interactive Optimizer 12.7.1.0
  with Simplex, Mixed Integer & Barrier Optimizers
5725-A06 5725-A29 5724-Y48 5724-Y49 5724-Y54 5724-Y55 5655-Y21
Copyright IBM Corp. 1988, 2017.  All Rights Reserved.

Type 'help' for a list of available commands.
Type 'help' followed by a command name for more
information on commands.

CPLEX> Specified objective sense: MINIMIZE
Selected objective  name:  line[1]
Selected RHS        name:  RHS
Selected bound      name:  BOUND
Problem '/tmp/cmpl.T24925.mps' read.
Read time = 0.06 sec. (10.22 ticks)
CPLEX> CPXPARAM_Read_APIEncoding                        "UTF-8"
Tried aggregator 3 times.
MIP Presolve eliminated 22973 rows and 35522 columns.
MIP Presolve modified 631 coefficients.
Aggregator did 1764 substitutions.
Reduced MIP has 3185 rows, 5169 columns, and 15321 nonzeros.
Reduced MIP has 4959 binaries, 0 generals, 0 SOSs, and 0 indicators.
Presolve time = 0.09 sec. (55.89 ticks)
Found incumbent of value 4473.771429 after 0.18 sec. (107.43 ticks)
Probing time = 0.01 sec. (2.76 ticks)
Tried aggregator 1 time.
MIP Presolve eliminated 0 rows and 61 columns.
Reduced MIP has 3185 rows, 5108 columns, and 15199 nonzeros.
Reduced MIP has 5108 binaries, 0 generals, 0 SOSs, and 0 indicators.
Presolve time = 0.02 sec. (14.30 ticks)
Probing time = 0.01 sec. (2.97 ticks)
Clique table members: 4439.
MIP emphasis: balance optimality and feasibility.
MIP search method: dynamic search.
Parallel mode: none, using 1 thread.
Root relaxation solution time = 0.04 sec. (28.01 ticks)

        Nodes                                         Cuts/
   Node  Left     Objective  IInf  Best Integer    Best Bound    ItCnt     Gap

*     0+    0                         4473.7714        0.0000           100.00%
*     0     0      integral     0     1972.2800     1972.2800     1601    0.00%
Elapsed time = 0.28 sec. (165.90 ticks, tree = 0.00 MB, solutions = 2)

Root node processing (before b&c):
  Real time             =    0.28 sec. (167.47 ticks)
Sequential b&c:
  Real time             =    0.00 sec. (0.00 ticks)
                          ------------
Total (root+branch&cut) =    0.28 sec. (167.47 ticks)

Solution pool: 2 solutions saved.

MIP - Integer optimal solution:  Objective =  1.9722799860e+03
Solution time =    0.28 sec.  Iterations = 1601  Nodes = 0
Deterministic time = 167.59 ticks  (589.13 ticks/sec)

CPLEX> Incumbent solution written to file '/tmp/cmpl.T24925.gsol'.
CPLEX> 
CMPL: Time used for model generation: 1 seconds
CMPL: Time used for solving the model: 1 seconds


Solution written to ASCII file: results/output_generated_conf_1/2015-11-02-5/fair-nonlinear.sol

Solver - finished
